290
1 11 10
2 12 10
3 12 11
4 13 1
5 14 13
6 15 1
7 15 10
8 15 13
9 15 14
10 16 10
11 16 11
12 16 13
13 16 14
14 16 15
15 17 10
16 17 11
17 17 12
18 17 13
19 17 14
20 17 15
21 17 16
22 18 11
23 18 12
24 18 13
25 18 14
26 18 15
27 18 16
28 18 17
29 19 1
30 19 13
31 19 14
32 2 1
33 2 14
34 2 16
35 20 10
36 20 13
37 20 14
38 20 15
39 20 19
40 20 2
41 21 11
42 21 14
43 21 15
44 21 16
45 21 19
46 21 20
47 22 1
48 22 10
49 22 12
50 22 15
51 22 16
52 22 17
53 22 19
54 22 20
55 22 21
56 23 11
57 23 16
58 23 17
59 23 18
60 23 19
61 23 2
62 23 20
63 23 21
64 23 22
65 24 10
66 24 12
67 24 17
68 24 18
69 24 19
70 24 20
71 24 21
72 24 22
73 24 23
74 25 1
75 25 10
76 25 13
77 25 15
78 25 19
79 25 20
80 26 11
81 26 14
82 26 16
83 26 19
84 26 2
85 26 20
86 26 21
87 26 25
88 27 12
89 27 13
90 27 15
91 27 17
92 27 20
93 27 21
94 27 22
95 27 25
96 27 26
97 28 10
98 28 14
99 28 16
100 28 18
101 28 21
102 28 22
103 28 23
104 28 25
105 28 26
106 28 27
107 29 1
108 29 11
109 29 15
110 29 17
111 29 22
112 29 23
113 29 24
114 29 25
115 29 26
116 29 27
117 29 28
118 3 1
119 3 10
120 3 13
121 3 15
122 3 17
123 3 2
124 3 21
125 3 24
126 3 27
127 30 12
128 30 16
129 30 18
130 30 2
131 30 23
132 30 24
133 30 25
134 30 26
135 30 27
136 30 28
137 30 29
138 31 1
139 31 11
140 31 13
141 31 16
142 31 19
143 31 21
144 31 25
145 31 26
146 32 12
147 32 14
148 32 17
149 32 2
150 32 20
151 32 22
152 32 25
153 32 26
154 32 27
155 32 31
156 33 15
157 33 18
158 33 19
159 33 21
160 33 23
161 33 26
162 33 27
163 33 28
164 33 3
165 33 31
166 33 32
167 34 10
168 34 13
169 34 16
170 34 20
171 34 22
172 34 24
173 34 27
174 34 28
175 34 29
176 34 31
177 34 32
178 34 33
179 35 11
180 35 14
181 35 17
182 35 21
183 35 23
184 35 28
185 35 29
186 35 30
187 35 31
188 35 32
189 35 33
190 35 34
191 36 1
192 36 12
193 36 15
194 36 18
195 36 22
196 36 24
197 36 29
198 36 30
199 36 31
200 36 32
201 36 33
202 36 34
203 36 35
204 4 1
205 4 10
206 4 11
207 4 14
208 4 16
209 4 18
210 4 19
211 4 2
212 4 22
213 4 28
214 4 3
215 4 34
216 5 1
217 5 10
218 5 11
219 5 12
220 5 15
221 5 17
222 5 2
223 5 20
224 5 23
225 5 25
226 5 29
227 5 3
228 5 35
229 5 4
230 6 1
231 6 11
232 6 12
233 6 16
234 6 18
235 6 2
236 6 21
237 6 24
238 6 26
239 6 3
240 6 30
241 6 31
242 6 36
243 6 4
244 6 5
245 7 1
246 7 10
247 7 11
248 7 12
249 7 13
250 7 14
251 7 19
252 7 2
253 7 21
254 7 25
255 7 28
256 7 31
257 7 35
258 8 1
259 8 10
260 8 11
261 8 12
262 8 13
263 8 14
264 8 15
265 8 2
266 8 20
267 8 22
268 8 26
269 8 29
270 8 3
271 8 32
272 8 36
273 8 7
274 9 10
275 9 11
276 9 12
277 9 14
278 9 15
279 9 16
280 9 19
281 9 2
282 9 21
283 9 23
284 9 27
285 9 3
286 9 30
287 9 33
288 9 4
289 9 7
290 9 8